(set-logic QF_SLIA)
(declare-fun var0 () String)
(assert (str.in_re var0 (re.++ ((_ re.loop 19 322) (re.++ (re.union (str.to_re "E") (re.union (str.to_re "3K'") (re.union (str.to_re "}") (str.to_re "gA")))) (re.++ (re.union (str.to_re "O") (re.union (str.to_re "Zz") (re.union (str.to_re "Q") (str.to_re "cPZ")))) (re.++ (re.union (str.to_re "Tf") (re.union (str.to_re "#-") (re.union (str.to_re "m.") (str.to_re "[B")))) (re.union (str.to_re "\u0022") (re.union (str.to_re "(Ap") (re.union (str.to_re "y") (str.to_re "iQ")))))))) (re.++ ((_ re.loop 20 802) (re.++ (re.union (str.to_re "@4O") (re.union (str.to_re ")Y&") (re.union (str.to_re "M") (str.to_re "V:")))) (re.++ (re.union (str.to_re "D") (re.union (str.to_re "7wU") (re.union (str.to_re "S/;") (str.to_re "h")))) (re.++ (re.union (str.to_re "s") (re.union (str.to_re "\\(Y") (re.union (str.to_re "R") (str.to_re "*_M")))) (re.union (str.to_re ";&") (re.union (str.to_re "/V") (re.union (str.to_re "zIo") (str.to_re "6_")))))))) (re.++ ((_ re.loop 20 480) (re.++ (re.union (str.to_re "6nU") (re.union (str.to_re "Z]") (re.union (str.to_re "5") (str.to_re "0")))) (re.++ (re.union (str.to_re "#") (re.union (str.to_re "O") (re.union (str.to_re "2XL") (str.to_re "/\u0022")))) (re.++ (re.union (str.to_re "a") (re.union (str.to_re "eD/") (re.union (str.to_re "L") (str.to_re "\\u5")))) (re.union (str.to_re ",") (re.union (str.to_re "G\\J") (re.union (str.to_re "2") (str.to_re "k")))))))) ((_ re.loop 14 469) (re.++ (re.union (str.to_re "H") (re.union (str.to_re "w") (re.union (str.to_re "cl[") (str.to_re "KS")))) (re.++ (re.union (str.to_re "c") (re.union (str.to_re "R") (re.union (str.to_re "k4n") (str.to_re "`")))) (re.++ (re.union (str.to_re ">") (re.union (str.to_re "0g") (re.union (str.to_re "/Z") (str.to_re "E^P")))) (re.union (str.to_re "(:") (re.union (str.to_re "jA") (re.union (str.to_re "H!V") (str.to_re "@sQ")))))))))))))
(assert (not (str.in_re var0 (re.++ ((_ re.loop 19 951) (re.++ (re.union (str.to_re "D{") (re.union (str.to_re "V") (re.union (str.to_re "yi3") (str.to_re "{{K")))) (re.++ (re.union (str.to_re "Txz") (re.union (str.to_re "O!$") (re.union (str.to_re "Q") (str.to_re "`4f")))) (re.++ (re.union (str.to_re "$") (re.union (str.to_re "U") (re.union (str.to_re "h\u0022+") (str.to_re "p")))) (re.union (str.to_re "2og") (re.union (str.to_re "wd\u0022") (re.union (str.to_re "+") (str.to_re "%?")))))))) (re.++ ((_ re.loop 4 842) (re.++ (re.union (str.to_re "|l") (re.union (str.to_re "]>^") (re.union (str.to_re "D") (str.to_re "p")))) (re.++ (re.union (str.to_re "5") (re.union (str.to_re "(IV") (re.union (str.to_re "L{^") (str.to_re "q")))) (re.++ (re.union (str.to_re "F+s") (re.union (str.to_re "iXK") (re.union (str.to_re "D&L") (str.to_re "p6")))) (re.union (str.to_re "Y#") (re.union (str.to_re "q;") (re.union (str.to_re "I&0") (str.to_re "[f")))))))) (re.++ ((_ re.loop 7 483) (re.++ (re.union (str.to_re "HFV") (re.union (str.to_re "d") (re.union (str.to_re "o_c") (str.to_re "*")))) (re.++ (re.union (str.to_re "@") (re.union (str.to_re "5OP") (re.union (str.to_re "i") (str.to_re "=!B")))) (re.++ (re.union (str.to_re "0ij") (re.union (str.to_re "s~") (re.union (str.to_re "MM") (str.to_re "t_i")))) (re.union (str.to_re "sUr") (re.union (str.to_re "#!") (re.union (str.to_re "RLI") (str.to_re "VE:")))))))) ((_ re.loop 13 99) (re.++ (re.union (str.to_re "P{") (re.union (str.to_re "%") (re.union (str.to_re "zf") (str.to_re "e")))) (re.++ (re.union (str.to_re "K") (re.union (str.to_re "<") (re.union (str.to_re "c]u") (str.to_re "D")))) (re.++ (re.union (str.to_re "c1g") (re.union (str.to_re "b_") (re.union (str.to_re "fU") (str.to_re "cu")))) (re.union (str.to_re "z@") (re.union (str.to_re "o8") (re.union (str.to_re "U%B") (str.to_re "*G3"))))))))))))))
(assert (not (str.in_re var0 (re.++ (re.* re.allchar) (re.++ (re.union (str.to_re "<") (re.union (str.to_re ">") (re.union (str.to_re "'") (re.union (str.to_re "\u0022") (str.to_re "&"))))) (re.* re.allchar))))))
(assert (<= 50 (str.len var0)))
(check-sat)
(get-model)
